% Generated by MiniZinc 2.9.4
% Solver library: /Applications/MiniZincIDE.app/Contents/Resources/share/minizinc/chuffed
% Command line invocation: /Applications/MiniZincIDE.app/Contents/Resources/minizinc --compile --solver chuffed memory/model_12bdfbcc.mzn --output-to-file memory/model_12bdfbcc.fzn 

var bool: X_INTRODUCED_0_;
var bool: X_INTRODUCED_1_;
var bool: X_INTRODUCED_2_;
array [1..3] of var bool: x:: output_array([1..3]) = [X_INTRODUCED_0_,X_INTRODUCED_1_,X_INTRODUCED_2_];
solve  satisfy;
